p cnf 29 69
a 1 3 0
e 2 4 5 6 7 8 9 10 11 12 13 14 15 16 17 18 19 20 21 22 23 24 25 26 27 28 29 0
-2 3 -4 0
2 -3 -4 0
-2 -3 4 0
2 3 4 0
1 -4 -5 0
-1 4 -5 0
1 4 5 0
-1 -4 5 0
-8 -6 0
-8 -7 0
6 7 8 0
-10 9 0
-10 6 0
-9 -6 10 0
11 -1 0
11 -10 0
1 10 -11 0
-12 8 0
-12 11 0
-8 -11 12 0
14 13 0
14 -7 0
-13 7 -14 0
15 -3 0
15 -14 0
3 14 -15 0
-16 -12 0
-16 15 0
12 -15 16 0
-18 17 0
-18 -2 0
-17 2 18 0
-2 -9 -19 0
2 9 -19 0
-2 9 19 0
2 -9 19 0
20 -18 0
20 -19 0
18 19 -20 0
-21 13 -22 0
21 -13 -22 0
-21 -13 22 0
21 13 22 0
23 -20 0
23 -22 0
20 22 -23 0
3 -24 -25 0
-3 24 -25 0
3 24 25 0
-3 -24 25 0
-26 -25 0
-26 17 0
25 -17 26 0
27 23 0
27 -26 0
-23 26 -27 0
28 16 0
28 27 0
-16 -27 -28 0
29 -5 0
29 -28 0
5 28 -29 0
-12 26 -23 -5 0
18 -6 7 26 -20 0
23 -15 -14 0
-4 -11 7 0
-1 -13 18 29 2 -21 25 0
4 -18 -13 20 0
29 0
